r = [
0,86,106,55,34,39,107,45,55,88,63,0
];
p = [
0,1,12,13,26,14,2,13,26,17,6,0
];
e = [
0,19,20,15,14,1,6,11,16,8,16,0
];
d = [
0,97,118,73,60,53,114,58,81,105,78,119
];
d_bar = [
0,98,119,74,63,54,115,59,84,107,79,119
];
w = [
0,19,20,15,4.666666667,1,6,11,5.333333333,4,16,0
];
